Set parameter TokenServer to value "hpc-licenses.hpcc.usc.edu"
Set parameter TimeLimit to value 3600
Gurobi Optimizer version 9.5.1 build v9.5.1rc2 (linux64)
Thread count: 20 physical cores, 20 logical processors, using up to 20 threads
Optimize a model with 6007 rows, 4529 columns and 24534 nonzeros
Model fingerprint: 0x3592ad6f
Variable types: 4506 continuous, 23 integer (23 binary)
Coefficient statistics:
  Matrix range     [1e+00, 1e+00]
  Objective range  [1e-03, 1e+00]
  Bounds range     [1e+00, 1e+00]
  RHS range        [1e+00, 4e+01]
Found heuristic solution: objective 278.7997590
Presolve removed 1520 rows and 1515 columns
Presolve time: 0.04s
Presolved: 4487 rows, 3014 columns, 21975 nonzeros
Variable types: 2994 continuous, 20 integer (20 binary)

Root relaxation: objective 2.840705e+02, 2300 iterations, 0.10 seconds (0.10 work units)

    Nodes    |    Current Node    |     Objective Bounds      |     Work
 Expl Unexpl |  Obj  Depth IntInf | Incumbent    BestBd   Gap | It/Node Time

     0     0  284.07049    0    4  278.79976  284.07049  1.89%     -    0s
     0     0  283.98426    0    3  278.79976  283.98426  1.86%     -    0s
H    0     0                     283.8763424  283.98426  0.04%     -    0s
     0     0  283.93126    0    4  283.87634  283.93126  0.02%     -    0s

Cutting planes:
  Gomory: 2
  MIR: 42
  Flow cover: 1
  RLT: 4

Explored 1 nodes (2910 simplex iterations) in 0.56 seconds (0.42 work units)
Thread count was 20 (of 20 available processors)

Solution count 2: 283.876 278.8 

Optimal solution found (tolerance 1.00e-04)
Best objective 2.838763423735e+02, best bound 2.838763423735e+02, gap 0.0000%



#########node  1
V1.9
#########node  2
0.1346153846153846,0.8653846153846154
#########node  3
1.0,0.0


Total Solving Time 0.9352760314941406
obj value 283.87634237351097
Policy Regret train (Sum) 6.1720858620906105
Best Treatment Found train (%) 66.60000000000001
treatment classification acc train (%) 57.199999999999996
Policy Regret test (Sum) 62.03435671197572
Best Treatment Found test (%) 75.61
treatment classification acc test (%) 55.65
